91	22	4	52	
9	11	10	13

0	0	0	0	0	0	4	1	2	3	4
1	0	2	0	0	3	3	5	8	9
2	0	10	0	0	8	3	5	6	7
3	3	0	0	0	8	3	5	7	8
4	8	0	0	0	1	2	6	12
5	1	0	0	0	4	3	10	12	14
6	0	0	7	0	1	1	8
7	0	7	0	0	2	3	9	10	14
8	0	0	8	0	7	2	10	14
9	0	0	3	0	2	3	12	13	19
10	0	0	8	0	9	2	11	19
11	3	0	0	0	9	2	13	20
12	0	8	0	0	2	3	16	17	20
13	3	0	0	0	2	2	15	17
14	0	3	0	0	7	4	15	17	19	20
15	0	2	0	0	3	1	16
16	0	0	0	6	6	1	18
17	0	0	0	10	3	1	21
18	0	0	1	0	4	1	21
19	8	0	0	0	4	1	21
20	0	0	0	10	6	1	21
21	0	0	0	0	0	0
